% demand
num_movements = 27;
loading_factor = [1750, 1200, 1050, 1250, 1550, 1250, 1150, 1000, 1050, 1200, 1350, 1650, 1700, 1500, 900, 1100, 1900, 1050, 1850, 1250, 950, 800, 1300, 1950, 1150, 1800, 1600];
pickup_time = [0, 0, 0, 0, 0, 1, 2, 2, 3, 3, 3, 5, 6, 6, 6, 6, 7, 8, 8, 8, 8, 9, 10, 10, 10, 10, 12];
delivery_time = [2, 2, 1, 2, 2, 3, 3, 3, 4, 5, 4, 7, 8, 8, 8, 7, 9, 9, 9, 9, 9, 14, 14, 14, 14, 11, 14];

% transporter definition
total_capacity = 7000;
num_decks = 3;
capacity = [3000, 1000, 3000];

% ways out of decks
num_ways_out = 1;
paths_out = array3d(decks, ways_out, decks, [
% ways out of deck d1
2, 3, 0, 

% ways out of deck d2
3, 0, 0, 

% ways out of deck d3
0, 0, 0,	

]);

